[2026-03-24T00:33:51.207Z] Pipeline "set_set_set_s006_g005" → 2026_03_24_00_33_51_set_set_set_s006_g005_max.sol
Set parameter WLSAccessID
Set parameter WLSSecret
Set parameter LicenseID to value 2792458
Set parameter LogFile to value "gurobi.log"
Using license file /root/gurobi.lic
Academic license 2792458 - for non-commercial use only - registered to an___@studenti.unipg.it

Gurobi Optimizer version 13.0.1 build v13.0.1rc0 (linux64 - "Ubuntu 24.04.4 LTS")
Copyright (c) 2026, Gurobi Optimization, LLC

Warning: Duplicate section found (read 'binary') - Is a variable name equal to an LP file format keyword?
Warning: Duplicate section found (read 'binary') - Is a variable name equal to an LP file format keyword?
Warning: Duplicate section found (read 'binary') - Is a variable name equal to an LP file format keyword?
Warning: Duplicate section found (read 'binary') - Is a variable name equal to an LP file format keyword?
Warning: Duplicate section found (read 'binary') - Is a variable name equal to an LP file format keyword?
Warning: Duplicate section found (read 'binary') - Is a variable name equal to an LP file format keyword?
Warning: Duplicate section found (read 'binary') - Is a variable name equal to an LP file format keyword?
Warning: Duplicate section found (read 'binary') - Is a variable name equal to an LP file format keyword?
Warning: Duplicate section found (read 'binary') - Is a variable name equal to an LP file format keyword?
Warning: Duplicate section found (read 'binary') - Is a variable name equal to an LP file format keyword?
Warning: Further warnings of this type will be omitted.
Read LP format model from file /root/bgw/data/uploads/2026_03_24_00_33_51_set_set_set_s006_g005_max.lp
Reading time = 0.00 seconds
: 516 rows, 103 columns, 1478 nonzeros

Using Gurobi shared library /opt/gurobi1301/linux64/lib/libgurobi.so.13.0.1

CPU model: AMD EPYC-Genoa Processor, instruction set [SSE2|AVX|AVX2|AVX512]
Thread count: 16 physical cores, 16 logical processors, using up to 16 threads

Academic license 2792458 - for non-commercial use only - registered to an___@studenti.unipg.it
Optimize a model with 516 rows, 103 columns and 1478 nonzeros (Max)
Model fingerprint: 0x380dbc8c
Model has 7 linear objective coefficients
Variable types: 18 continuous, 85 integer (85 binary)
Coefficient statistics:
  Matrix range     [1e+00, 1e+01]
  Objective range  [1e+00, 1e+00]
  Bounds range     [1e+00, 1e+00]
  RHS range        [1e+00, 1e+01]

Found heuristic solution: objective 7.0000000
Presolve removed 160 rows and 32 columns
Presolve time: 0.00s
Presolved: 356 rows, 71 columns, 1116 nonzeros
Variable types: 0 continuous, 71 integer (65 binary)
Found heuristic solution: objective 11.0000000

Root relaxation: objective 3.100000e+01, 43 iterations, 0.00 seconds (0.00 work units)

    Nodes    |    Current Node    |     Objective Bounds      |     Work
 Expl Unexpl |  Obj  Depth IntInf | Incumbent    BestBd   Gap | It/Node Time

     0     0   31.00000    0   14   11.00000   31.00000   182%     -    0s
H    0     0                      17.0000000   31.00000  82.4%     -    0s
H    0     0                      19.0000000   31.00000  63.2%     -    0s
     0     0   31.00000    0   21   19.00000   31.00000  63.2%     -    0s
     0     0   31.00000    0   19   19.00000   31.00000  63.2%     -    0s
     0     0   31.00000    0   18   19.00000   31.00000  63.2%     -    0s
     0     0   30.88889    0   17   19.00000   30.88889  62.6%     -    0s
     0     0   30.88889    0   14   19.00000   30.88889  62.6%     -    0s
     0     0   30.00000    0   19   19.00000   30.00000  57.9%     -    0s
     0     0   30.00000    0   18   19.00000   30.00000  57.9%     -    0s
     0     0   30.00000    0   20   19.00000   30.00000  57.9%     -    0s
     0     0   30.00000    0   19   19.00000   30.00000  57.9%     -    0s
     0     0   30.00000    0   18   19.00000   30.00000  57.9%     -    0s
     0     0   29.66667    0   17   19.00000   29.66667  56.1%     -    0s
     0     0   29.66667    0   17   19.00000   29.66667  56.1%     -    0s
     0     0   29.55556    0   17   19.00000   29.55556  55.6%     -    0s
     0     0   29.55556    0   17   19.00000   29.55556  55.6%     -    0s
     0     2   29.55556    0   17   19.00000   29.55556  55.6%     -    0s

Cutting planes:
  Gomory: 6
  MIR: 3
  Inf proof: 6
  Zero half: 4

Explored 947 nodes (11688 simplex iterations) in 0.16 seconds (0.09 work units)
Thread count was 16 (of 16 available processors)

Solution count 4: 19 17 11 7 

Optimal solution found (tolerance 1.00e-04)
Best objective 1.900000000000e+01, best bound 1.900000000000e+01, gap 0.0000%

Wrote result file '/root/bgw/data/results/2026_03_24_00_33_51_set_set_set_s006_g005_max.sol'

